
Welcome to IBM(R) ILOG(R) CPLEX(R) Interactive Optimizer 22.1.1.0
  with Simplex, Mixed Integer & Barrier Optimizers
5725-A06 5725-A29 5724-Y48 5724-Y49 5724-Y54 5724-Y55 5655-Y21
Copyright IBM Corp. 1988, 2022.  All Rights Reserved.

Type 'help' for a list of available commands.
Type 'help' followed by a command name for more
information on commands.

CPLEX> Selected objective sense:  MINIMIZE
Selected objective  name:  00000000
Selected RHS        name:  RHS1
Selected bound      name:  BOUND
Problem 'ee.mps' read.
Read time = 0.03 sec. (3.17 ticks)
CPLEX> New value for time limit in seconds: 7200
CPLEX> New value for parallel optimization mode: -1
CPLEX> New value for default parallel thread count: 40
CPLEX> New value for mixed integer optimality gap tolerance: 1e-13
CPLEX> Version identifier: 22.1.1.0 | 2022-11-28 | 9160aff4d
CPXPARAM_Threads                                 40
CPXPARAM_Parallel                                -1
CPXPARAM_TimeLimit                               7200
CPXPARAM_MIP_Tolerances_MIPGap                   1e-13
Found incumbent of value 0.000000 after 0.00 sec. (0.31 ticks)
Tried aggregator 2 times.
MIP Presolve eliminated 182 rows and 2745 columns.
MIP Presolve modified 6090 coefficients.
Aggregator did 713 substitutions.
Reduced MIP has 3636 rows, 7840 columns, and 28952 nonzeros.
Reduced MIP has 7840 binaries, 0 generals, 0 SOSs, and 0 indicators.
Presolve time = 0.07 sec. (69.14 ticks)
Probing fixed 136 vars, tightened 0 bounds.
Probing time = 0.07 sec. (40.06 ticks)
Tried aggregator 2 times.
Detecting symmetries...
MIP Presolve eliminated 40 rows and 185 columns.
MIP Presolve modified 12 coefficients.
Aggregator did 49 substitutions.
Reduced MIP has 3547 rows, 7592 columns, and 28073 nonzeros.
Reduced MIP has 7592 binaries, 0 generals, 0 SOSs, and 0 indicators.
Presolve time = 0.07 sec. (76.02 ticks)
Probing fixed 17 vars, tightened 0 bounds.
Probing time = 0.08 sec. (34.86 ticks)
Clique table members: 18347.
MIP emphasis: balance optimality and feasibility.
MIP search method: dynamic search.
Parallel mode: opportunistic, using up to 40 threads.
Root relaxation solution time = 0.15 sec. (114.12 ticks)

        Nodes                                         Cuts/
   Node  Left     Objective  IInf  Best Integer    Best Bound    ItCnt     Gap

*     0+    0                            0.0000  -1.54000e+13              --- 
*     0+    0                      -4.79000e+12  -1.54000e+13           221.50%
*     0+    0                      -6.00000e+12  -1.54000e+13           156.67%
*     0+    0                      -7.20000e+12  -1.54000e+13           113.89%
*     0+    0                      -8.40000e+12  -1.54000e+13            83.33%
      0     0  -1.53900e+13    97  -8.40000e+12  -1.53900e+13     2698   83.21%
*     0+    0                      -1.53900e+13  -1.53900e+13             0.00%
      0     0  -1.53900e+13   134  -1.53900e+13      Cuts: 75     3341    0.00%
*     0+    0                      -1.53900e+13  -1.53900e+13             0.00%
      0     0  -1.53900e+13   201  -1.53900e+13      Cuts: 94     3819    0.00%
*     0+    0                      -1.53900e+13  -1.53900e+13             0.00%
*     0+    0                      -1.53900e+13  -1.53900e+13             0.00%
      0     0  -1.00000e+75     0  -1.53900e+13  -1.53900e+13     3819    0.00%
Detecting symmetries...
      0     2  -1.53900e+13   201  -1.53900e+13  -1.53900e+13     3819    0.00%
Elapsed time = 2.76 sec. (1249.84 ticks, tree = 0.02 MB, solutions = 22)
     79    38  -1.53900e+13   206  -1.53900e+13  -1.53900e+13    24696    0.00%
    315    60        cutoff        -1.53900e+13  -1.53900e+13    55239    0.00%
    686    69  -1.53900e+13   135  -1.53900e+13  -1.53900e+13    56025    0.00%
   1254   110  -1.53900e+13   115  -1.53900e+13  -1.53900e+13    93491    0.00%
   1812   245  -1.53900e+13   224  -1.53900e+13  -1.53900e+13   124700    0.00%
   2437   240        cutoff        -1.53900e+13  -1.53900e+13   124794    0.00%
   3053   666  -1.53900e+13    65  -1.53900e+13  -1.53900e+13   230790    0.00%
   3538   654  -1.53900e+13   174  -1.53900e+13  -1.53900e+13   229392    0.00%
   3833   940        cutoff        -1.53900e+13  -1.53900e+13   299751    0.00%
   5351  1830        cutoff        -1.53900e+13  -1.53900e+13   475867    0.00%
Elapsed time = 8.58 sec. (4357.14 ticks, tree = 17.93 MB, solutions = 22)
   7082  2456  -1.53900e+13    73  -1.53900e+13  -1.53900e+13   656758    0.00%
   8442  3012  -1.53900e+13    54  -1.53900e+13  -1.53900e+13   865399    0.00%
   9561  3060  -1.53900e+13   148  -1.53900e+13  -1.53900e+13   913007    0.00%
  10088  3365        cutoff        -1.53900e+13  -1.53900e+13  1052633    0.00%

Performing restart 1

Repeating presolve.
Tried aggregator 2 times.
MIP Presolve eliminated 54 rows and 54 columns.
MIP Presolve modified 1908 coefficients.
Aggregator did 7 substitutions.
Reduced MIP has 3409 rows, 7523 columns, and 27221 nonzeros.
Reduced MIP has 7523 binaries, 0 generals, 0 SOSs, and 0 indicators.
Presolve time = 0.05 sec. (47.76 ticks)
Tried aggregator 1 time.
Reduced MIP has 3409 rows, 7523 columns, and 27221 nonzeros.
Reduced MIP has 7523 binaries, 0 generals, 0 SOSs, and 0 indicators.
Presolve time = 0.03 sec. (21.33 ticks)
Represolve time = 0.21 sec. (127.17 ticks)
  10132     0  -1.53900e+13   280  -1.53900e+13      Cuts: 55  1349806    0.00%
  10132     0  -1.53900e+13   353  -1.53900e+13      Cuts: 56  1350188    0.00%
  10132     0  -1.53900e+13   354  -1.53900e+13      Cuts: 32  1350319    0.00%
  10132     0  -1.53900e+13   352  -1.53900e+13      Cuts: 25  1350545    0.00%
  10132     0  -1.53900e+13   344  -1.53900e+13      Cuts: 30  1351204    0.00%
  10132     0  -1.53900e+13   363  -1.53900e+13      Cuts: 72  1351834    0.00%
  10132     0  -1.53900e+13   401  -1.53900e+13      Cuts: 42  1352165    0.00%
  10132    11        cutoff        -1.53900e+13  -1.53900e+13  1400781    0.00%
  10768    67        cutoff        -1.53900e+13  -1.53900e+13  1480350    0.00%
  12200    37        cutoff        -1.53900e+13  -1.53900e+13  1808441    0.00%
  13873    92  -1.53900e+13    62  -1.53900e+13  -1.53900e+13  1458162    0.00%
  15211    60  -1.53900e+13    32  -1.53900e+13  -1.53900e+13  1661653    0.00%
  16771    52  -1.53900e+13    97  -1.53900e+13  -1.53900e+13  1664046    0.00%
Elapsed time = 33.03 sec. (17049.35 ticks, tree = 0.13 MB, solutions = 22)
  18455    75        cutoff        -1.53900e+13  -1.53900e+13  1816394    0.00%
  20044   742  -1.53900e+13   159  -1.53900e+13  -1.53900e+13  2128375    0.00%
  21858   317        cutoff        -1.53900e+13  -1.53900e+13  1947624    0.00%
  23806  2612        cutoff        -1.53900e+13  -1.53900e+13  3586043    0.00%
  26071  2040  -1.53900e+13   217  -1.53900e+13  -1.53900e+13  3744637    0.00%
  28423  1848        cutoff        -1.53900e+13  -1.53900e+13  3773895    0.00%
  30717  2437  -1.53900e+13    13  -1.53900e+13  -1.53900e+13  3655976    0.00%
  32603  2809        cutoff        -1.53900e+13  -1.53900e+13  3435344    0.00%
  34432  2483  -1.53900e+13    13  -1.53900e+13  -1.53900e+13  3031473    0.00%
  36425  2785        cutoff        -1.53900e+13  -1.53900e+13  3481411    0.00%
Elapsed time = 42.15 sec. (26591.32 ticks, tree = 9.42 MB, solutions = 22)
  38343  1961        cutoff        -1.53900e+13  -1.53900e+13  3756272    0.00%
  40243  2005  -1.53900e+13   121  -1.53900e+13  -1.53900e+13  3749830    0.00%
  41271   727  -1.53900e+13    16  -1.53900e+13  -1.53900e+13  3868955    0.00%
  41502  1035        cutoff        -1.53900e+13  -1.53900e+13  3852648    0.00%

GUB cover cuts applied:  9
Clique cuts applied:  18
Cover cuts applied:  477
Flow cuts applied:  1
Mixed integer rounding cuts applied:  8
Zero-half cuts applied:  67
Lift and project cuts applied:  5
Gomory fractional cuts applied:  23

Root node processing (before b&c):
  Real time             =    1.47 sec. (1234.18 ticks)
Parallel b&c, 40 threads:
  Real time             =   40.73 sec. (29425.21 ticks)
  Sync time (average)   =    6.45 sec.
  Wait time (average)   =    0.14 sec.
                          ------------
Total (root+branch&cut) =   42.20 sec. (30659.38 ticks)

Solution pool: 22 solutions saved.

MIP - Integer optimal solution:  Objective = -1.5389998787e+13
Solution time =   42.35 sec.  Iterations = 3888593  Nodes = 41555
Deterministic time = 30659.41 ticks  (723.98 ticks/sec)

CPLEX> Solution 'p23' written to file 'ee.sol'.
CPLEX> 